24 4
86 92 60 58 14 41 82 45 49 65 105 75 62 88 65 46 74 55 47 90 24 81 83 89
88 95 62 80 20 20 96 28 37 55 90 75 43 90 64 27 60 74 62 103 34 85 90 98
100 78 50 70 17 37 101 40 49 74 91 77 40 93 55 33 67 68 72 90 34 69 94 89
85 89 50 79 30 13 96 52 24 63 113 99 57 87 66 21 81 50 45 103 33 87 83 93
